&INPUTPP
    prefix = 'mos2bulk'
    outdir = './mos2bulk/'
/

&ENERGY_GRID
    smeartype = 'gauss'
    intersmear = 0.002
    wmin = 0.0
    wmax = 30.0
    nw = 1000
/
